c instance by G2
c solution = 0000011
c Known solution cost is 259 
p cnf 7 30
w 72 30 76 7 34 15 25
3 -1 -7 0
2 -1 -7 0
3 -5 4 0
1 -5 6 0
5 2 7 0
7 -2 -1 0
-1 -2 6 0
-3 5 1 0
5 -4 2 0
-4 1 -5 0
-3 -7 -1 0
6 -3 4 0
3 4 -1 0
6 7 3 0
-5 -4 7 0
2 -1 5 0
-1 -7 2 0
1 -2 3 0
-6 7 -1 0
1 7 -5 0
3 6 -7 0
1 7 2 0
7 6 -3 0
-2 6 -3 0
-4 5 6 0
-5 -2 6 0
-4 -2 1 0
2 4 6 0
-2 -1 -5 0
-6 -3 4 0
